NAME: cuum810.tsp
TYPE: TSP
COMMENT: User-generated TSP file
DIMENSION: 810
EDGE_WEIGHT_TYPE: EUC_2D
NODE_COORD_SECTION
1 132.0 606.0
2 140.0 134.0
3 568.0 255.0
4 604.0 421.0
5 459.0 347.0
6 445.0 494.0
7 287.0 68.0
8 633.0 325.0
9 413.0 51.0
10 701.0 450.0
11 377.0 504.0
12 365.0 467.0
13 599.0 783.0
14 97.0 63.0
15 298.0 86.0
16 244.0 502.0
17 622.0 68.0
18 165.0 156.0
19 103.0 507.0
20 69.0 216.0
21 625.0 534.0
22 302.0 248.0
23 737.0 197.0
24 382.0 528.0
25 474.0 566.0
26 97.0 42.0
27 735.0 400.0
28 804.0 539.0
29 317.0 386.0
30 387.0 460.0
31 207.0 618.0
32 691.0 755.0
33 475.0 754.0
34 338.0 77.0
35 651.0 386.0
36 131.0 777.0
37 638.0 114.0
38 573.0 549.0
39 291.0 590.0
40 642.0 787.0
41 519.0 511.0
42 523.0 301.0
43 458.0 519.0
44 367.0 469.0
45 568.0 460.0
46 612.0 594.0
47 580.0 43.0
48 484.0 632.0
49 448.0 8.0
50 780.0 435.0
51 510.0 90.0
52 108.0 199.0
53 223.0 707.0
54 715.0 495.0
55 776.0 802.0
56 460.0 672.0
57 632.0 383.0
58 686.0 784.0
59 635.0 787.0
60 111.0 508.0
61 111.0 177.0
62 719.0 96.0
63 122.0 320.0
64 288.0 155.0
65 808.0 62.0
66 337.0 268.0
67 649.0 92.0
68 100.0 346.0
69 517.0 716.0
70 621.0 759.0
71 502.0 348.0
72 249.0 519.0
73 429.0 300.0
74 37.0 725.0
75 89.0 329.0
76 602.0 617.0
77 104.0 670.0
78 501.0 760.0
79 664.0 10.0
80 112.0 691.0
81 468.0 465.0
82 574.0 10.0
83 121.0 115.0
84 203.0 263.0
85 278.0 327.0
86 483.0 120.0
87 499.0 204.0
88 535.0 462.0
89 73.0 195.0
90 347.0 275.0
91 747.0 484.0
92 751.0 514.0
93 734.0 212.0
94 248.0 68.0
95 314.0 25.0
96 384.0 509.0
97 584.0 245.0
98 223.0 253.0
99 512.0 312.0
100 514.0 757.0
101 534.0 535.0
102 575.0 615.0
103 659.0 690.0
104 753.0 447.0
105 203.0 409.0
106 139.0 371.0
107 388.0 394.0
108 480.0 478.0
109 70.0 801.0
110 462.0 231.0
111 613.0 511.0
112 144.0 333.0
113 743.0 435.0
114 560.0 482.0
115 596.0 230.0
116 638.0 235.0
117 346.0 697.0
118 755.0 507.0
119 153.0 365.0
120 356.0 347.0
121 653.0 187.0
122 426.0 626.0
123 81.0 195.0
124 715.0 284.0
125 780.0 43.0
126 378.0 69.0
127 480.0 104.0
128 193.0 809.0
129 542.0 73.0
130 49.0 102.0
131 746.0 55.0
132 380.0 732.0
133 55.0 446.0
134 788.0 555.0
135 131.0 318.0
136 595.0 397.0
137 800.0 34.0
138 579.0 235.0
139 635.0 583.0
140 232.0 294.0
141 465.0 553.0
142 66.0 149.0
143 259.0 123.0
144 445.0 240.0
145 671.0 416.0
146 355.0 329.0
147 603.0 258.0
148 427.0 483.0
149 405.0 709.0
150 69.0 484.0
151 729.0 123.0
152 562.0 696.0
153 579.0 757.0
154 644.0 276.0
155 356.0 161.0
156 194.0 311.0
157 260.0 487.0
158 748.0 153.0
159 517.0 563.0
160 342.0 289.0
161 497.0 647.0
162 481.0 590.0
163 763.0 549.0
164 578.0 809.0
165 448.0 229.0
166 72.0 92.0
167 180.0 27.0
168 678.0 776.0
169 674.0 519.0
170 312.0 637.0
171 286.0 575.0
172 731.0 340.0
173 697.0 64.0
174 476.0 154.0
175 115.0 71.0
176 15.0 374.0
177 232.0 587.0
178 259.0 264.0
179 43.0 646.0
180 666.0 773.0
181 616.0 427.0
182 622.0 323.0
183 766.0 125.0
184 560.0 289.0
185 258.0 618.0
186 485.0 735.0
187 247.0 629.0
188 215.0 11.0
189 211.0 120.0
190 778.0 526.0
191 611.0 592.0
192 326.0 681.0
193 677.0 199.0
194 555.0 257.0
195 319.0 806.0
196 444.0 205.0
197 412.0 176.0
198 726.0 797.0
199 308.0 16.0
200 115.0 607.0
201 522.0 555.0
202 602.0 612.0
203 428.0 417.0
204 227.0 356.0
205 350.0 52.0
206 38.0 631.0
207 228.0 440.0
208 72.0 209.0
209 316.0 335.0
210 357.0 649.0
211 225.0 368.0
212 179.0 648.0
213 372.0 338.0
214 149.0 589.0
215 785.0 166.0
216 750.0 351.0
217 364.0 639.0
218 681.0 354.0
219 342.0 247.0
220 121.0 353.0
221 688.0 25.0
222 463.0 663.0
223 334.0 162.0
224 805.0 402.0
225 514.0 220.0
226 651.0 542.0
227 229.0 615.0
228 436.0 753.0
229 598.0 549.0
230 798.0 626.0
231 753.0 429.0
232 302.0 159.0
233 314.0 83.0
234 539.0 457.0
235 708.0 168.0
236 598.0 145.0
237 266.0 753.0
238 649.0 783.0
239 57.0 51.0
240 413.0 493.0
241 123.0 338.0
242 108.0 243.0
243 113.0 679.0
244 26.0 669.0
245 673.0 328.0
246 612.0 63.0
247 159.0 620.0
248 344.0 530.0
249 75.0 185.0
250 55.0 471.0
251 428.0 784.0
252 280.0 604.0
253 636.0 483.0
254 308.0 430.0
255 808.0 203.0
256 526.0 15.0
257 698.0 760.0
258 284.0 39.0
259 805.0 31.0
260 200.0 696.0
261 95.0 323.0
262 482.0 638.0
263 77.0 592.0
264 387.0 174.0
265 287.0 476.0
266 216.0 302.0
267 299.0 220.0
268 565.0 373.0
269 566.0 708.0
270 83.0 157.0
271 240.0 459.0
272 769.0 546.0
273 503.0 420.0
274 606.0 501.0
275 566.0 168.0
276 781.0 693.0
277 486.0 729.0
278 715.0 204.0
279 406.0 155.0
280 425.0 106.0
281 15.0 239.0
282 100.0 714.0
283 778.0 32.0
284 98.0 652.0
285 229.0 711.0
286 186.0 11.0
287 674.0 108.0
288 778.0 318.0
289 550.0 518.0
290 104.0 745.0
291 117.0 261.0
292 344.0 719.0
293 645.0 212.0
294 205.0 810.0
295 21.0 523.0
296 379.0 134.0
297 40.0 282.0
298 227.0 186.0
299 606.0 248.0
300 98.0 387.0
301 79.0 778.0
302 609.0 180.0
303 335.0 732.0
304 332.0 477.0
305 120.0 432.0
306 791.0 259.0
307 519.0 598.0
308 359.0 725.0
309 416.0 142.0
310 601.0 692.0
311 568.0 522.0
312 681.0 657.0
313 179.0 497.0
314 261.0 366.0
315 668.0 332.0
316 288.0 279.0
317 121.0 240.0
318 637.0 380.0
319 207.0 178.0
320 607.0 73.0
321 211.0 249.0
322 185.0 802.0
323 210.0 111.0
324 381.0 59.0
325 216.0 147.0
326 523.0 759.0
327 770.0 650.0
328 490.0 702.0
329 150.0 753.0
330 18.0 421.0
331 662.0 410.0
332 623.0 124.0
333 390.0 361.0
334 257.0 756.0
335 785.0 438.0
336 501.0 778.0
337 639.0 554.0
338 103.0 522.0
339 41.0 725.0
340 98.0 522.0
341 51.0 504.0
342 343.0 436.0
343 702.0 499.0
344 148.0 565.0
345 722.0 314.0
346 804.0 560.0
347 180.0 678.0
348 660.0 653.0
349 392.0 711.0
350 532.0 791.0
351 1.0 260.0
352 106.0 221.0
353 718.0 702.0
354 37.0 8.0
355 730.0 163.0
356 708.0 175.0
357 625.0 539.0
358 654.0 531.0
359 411.0 717.0
360 380.0 153.0
361 458.0 354.0
362 735.0 292.0
363 609.0 562.0
364 796.0 553.0
365 370.0 165.0
366 360.0 422.0
367 367.0 747.0
368 374.0 412.0
369 36.0 808.0
370 362.0 215.0
371 416.0 592.0
372 570.0 53.0
373 551.0 4.0
374 488.0 397.0
375 167.0 275.0
376 454.0 639.0
377 124.0 57.0
378 612.0 138.0
379 752.0 671.0
380 305.0 195.0
381 16.0 557.0
382 253.0 46.0
383 351.0 651.0
384 200.0 530.0
385 298.0 139.0
386 502.0 576.0
387 240.0 256.0
388 180.0 599.0
389 83.0 697.0
390 506.0 528.0
391 773.0 682.0
392 202.0 550.0
393 432.0 388.0
394 639.0 135.0
395 747.0 246.0
396 148.0 530.0
397 806.0 368.0
398 767.0 725.0
399 50.0 640.0
400 724.0 54.0
401 266.0 119.0
402 236.0 26.0
403 471.0 372.0
404 485.0 287.0
405 634.0 66.0
406 328.0 626.0
407 104.0 577.0
408 331.0 238.0
409 614.0 50.0
410 756.0 800.0
411 329.0 701.0
412 18.0 209.0
413 313.0 429.0
414 693.0 534.0
415 373.0 541.0
416 185.0 248.0
417 730.0 7.0
418 124.0 221.0
419 681.0 300.0
420 216.0 254.0
421 735.0 527.0
422 38.0 343.0
423 323.0 549.0
424 454.0 426.0
425 403.0 778.0
426 697.0 434.0
427 687.0 612.0
428 798.0 763.0
429 542.0 290.0
430 416.0 8.0
431 644.0 234.0
432 612.0 394.0
433 778.0 63.0
434 20.0 382.0
435 74.0 775.0
436 147.0 169.0
437 320.0 188.0
438 115.0 44.0
439 671.0 90.0
440 536.0 642.0
441 774.0 349.0
442 201.0 230.0
443 634.0 350.0
444 584.0 205.0
445 560.0 61.0
446 646.0 600.0
447 802.0 405.0
448 291.0 687.0
449 715.0 787.0
450 467.0 587.0
451 69.0 37.0
452 706.0 323.0
453 165.0 405.0
454 626.0 648.0
455 641.0 341.0
456 782.0 623.0
457 561.0 172.0
458 514.0 435.0
459 763.0 87.0
460 193.0 279.0
461 6.0 270.0
462 216.0 321.0
463 660.0 603.0
464 566.0 51.0
465 436.0 315.0
466 207.0 291.0
467 185.0 328.0
468 651.0 623.0
469 537.0 687.0
470 736.0 320.0
471 176.0 163.0
472 129.0 498.0
473 67.0 375.0
474 108.0 514.0
475 485.0 675.0
476 553.0 559.0
477 715.0 43.0
478 568.0 116.0
479 709.0 739.0
480 551.0 425.0
481 372.0 104.0
482 259.0 493.0
483 616.0 217.0
484 483.0 263.0
485 420.0 344.0
486 157.0 580.0
487 641.0 365.0
488 497.0 713.0
489 421.0 547.0
490 395.0 594.0
491 195.0 593.0
492 576.0 346.0
493 603.0 265.0
494 387.0 430.0
495 388.0 119.0
496 547.0 39.0
497 287.0 654.0
498 207.0 67.0
499 80.0 292.0
500 611.0 279.0
501 308.0 664.0
502 436.0 566.0
503 143.0 423.0
504 622.0 183.0
505 75.0 160.0
506 795.0 393.0
507 313.0 689.0
508 325.0 257.0
509 667.0 63.0
510 331.0 619.0
511 324.0 298.0
512 98.0 163.0
513 186.0 240.0
514 194.0 10.0
515 437.0 584.0
516 712.0 634.0
517 301.0 190.0
518 527.0 248.0
519 269.0 204.0
520 338.0 626.0
521 176.0 478.0
522 99.0 177.0
523 368.0 230.0
524 139.0 652.0
525 554.0 460.0
526 164.0 487.0
527 674.0 254.0
528 247.0 135.0
529 385.0 268.0
530 503.0 431.0
531 430.0 469.0
532 580.0 717.0
533 232.0 700.0
534 674.0 117.0
535 769.0 196.0
536 579.0 642.0
537 756.0 151.0
538 130.0 268.0
539 209.0 98.0
540 196.0 428.0
541 46.0 678.0
542 384.0 549.0
543 786.0 49.0
544 149.0 291.0
545 384.0 735.0
546 435.0 300.0
547 599.0 620.0
548 536.0 600.0
549 393.0 579.0
550 616.0 186.0
551 680.0 215.0
552 108.0 731.0
553 98.0 728.0
554 612.0 499.0
555 152.0 718.0
556 742.0 487.0
557 612.0 757.0
558 289.0 609.0
559 456.0 453.0
560 264.0 377.0
561 542.0 678.0
562 140.0 713.0
563 396.0 614.0
564 684.0 284.0
565 133.0 545.0
566 226.0 544.0
567 169.0 59.0
568 32.0 10.0
569 699.0 166.0
570 518.0 526.0
571 320.0 378.0
572 652.0 246.0
573 768.0 220.0
574 654.0 259.0
575 486.0 748.0
576 299.0 39.0
577 21.0 185.0
578 405.0 112.0
579 265.0 221.0
580 526.0 285.0
581 310.0 783.0
582 572.0 770.0
583 583.0 606.0
584 183.0 692.0
585 290.0 390.0
586 714.0 744.0
587 576.0 435.0
588 71.0 726.0
589 656.0 92.0
590 163.0 158.0
591 185.0 143.0
592 482.0 112.0
593 161.0 548.0
594 517.0 156.0
595 351.0 165.0
596 160.0 459.0
597 187.0 577.0
598 117.0 265.0
599 790.0 127.0
600 46.0 205.0
601 724.0 580.0
602 410.0 440.0
603 778.0 342.0
604 401.0 664.0
605 754.0 380.0
606 402.0 362.0
607 619.0 473.0
608 223.0 600.0
609 738.0 775.0
610 101.0 728.0
611 22.0 679.0
612 133.0 728.0
613 109.0 701.0
614 477.0 488.0
615 1.0 216.0
616 167.0 627.0
617 612.0 317.0
618 294.0 609.0
619 116.0 331.0
620 580.0 729.0
621 393.0 321.0
622 458.0 38.0
623 565.0 30.0
624 291.0 553.0
625 358.0 97.0
626 332.0 807.0
627 727.0 500.0
628 676.0 749.0
629 283.0 443.0
630 662.0 300.0
631 304.0 146.0
632 27.0 600.0
633 109.0 212.0
634 729.0 510.0
635 659.0 227.0
636 598.0 183.0
637 742.0 80.0
638 266.0 376.0
639 1.0 84.0
640 148.0 27.0
641 439.0 781.0
642 571.0 732.0
643 52.0 597.0
644 663.0 50.0
645 94.0 136.0
646 212.0 51.0
647 75.0 775.0
648 47.0 504.0
649 128.0 182.0
650 573.0 724.0
651 398.0 265.0
652 561.0 744.0
653 389.0 767.0
654 202.0 119.0
655 84.0 572.0
656 574.0 735.0
657 466.0 490.0
658 113.0 585.0
659 45.0 134.0
660 776.0 181.0
661 542.0 757.0
662 140.0 116.0
663 59.0 26.0
664 124.0 149.0
665 441.0 646.0
666 781.0 30.0
667 43.0 596.0
668 734.0 78.0
669 552.0 638.0
670 734.0 414.0
671 271.0 533.0
672 459.0 40.0
673 153.0 489.0
674 678.0 581.0
675 566.0 384.0
676 24.0 170.0
677 334.0 416.0
678 419.0 560.0
679 418.0 579.0
680 598.0 561.0
681 695.0 607.0
682 689.0 680.0
683 376.0 688.0
684 522.0 351.0
685 242.0 577.0
686 733.0 355.0
687 329.0 82.0
688 34.0 636.0
689 436.0 296.0
690 547.0 480.0
691 729.0 34.0
692 565.0 569.0
693 103.0 542.0
694 374.0 807.0
695 501.0 202.0
696 324.0 803.0
697 34.0 635.0
698 628.0 43.0
699 603.0 636.0
700 436.0 212.0
701 255.0 115.0
702 84.0 113.0
703 638.0 586.0
704 778.0 492.0
705 202.0 679.0
706 265.0 707.0
707 103.0 433.0
708 517.0 338.0
709 663.0 632.0
710 620.0 284.0
711 80.0 49.0
712 154.0 349.0
713 316.0 758.0
714 611.0 292.0
715 289.0 489.0
716 593.0 647.0
717 383.0 168.0
718 766.0 178.0
719 62.0 372.0
720 431.0 375.0
721 429.0 720.0
722 688.0 762.0
723 700.0 599.0
724 337.0 804.0
725 334.0 10.0
726 620.0 764.0
727 483.0 48.0
728 431.0 256.0
729 652.0 332.0
730 680.0 713.0
731 793.0 598.0
732 731.0 146.0
733 64.0 466.0
734 591.0 749.0
735 121.0 462.0
736 462.0 525.0
737 420.0 134.0
738 9.0 798.0
739 496.0 50.0
740 549.0 509.0
741 224.0 747.0
742 181.0 385.0
743 489.0 573.0
744 790.0 743.0
745 557.0 94.0
746 146.0 480.0
747 406.0 709.0
748 516.0 3.0
749 335.0 165.0
750 696.0 703.0
751 256.0 680.0
752 684.0 321.0
753 204.0 568.0
754 388.0 671.0
755 480.0 212.0
756 19.0 349.0
757 452.0 756.0
758 706.0 436.0
759 222.0 637.0
760 108.0 62.0
761 95.0 602.0
762 144.0 565.0
763 339.0 153.0
764 152.0 422.0
765 794.0 576.0
766 248.0 593.0
767 109.0 432.0
768 375.0 431.0
769 729.0 332.0
770 349.0 380.0
771 695.0 418.0
772 55.0 727.0
773 419.0 419.0
774 570.0 182.0
775 522.0 268.0
776 396.0 711.0
777 792.0 339.0
778 543.0 224.0
779 700.0 91.0
780 492.0 486.0
781 74.0 348.0
782 739.0 713.0
783 317.0 404.0
784 428.0 310.0
785 18.0 568.0
786 742.0 237.0
787 351.0 212.0
788 306.0 34.0
789 375.0 689.0
790 31.0 664.0
791 296.0 724.0
792 186.0 168.0
793 420.0 650.0
794 789.0 149.0
795 668.0 688.0
796 658.0 369.0
797 258.0 601.0
798 521.0 794.0
799 111.0 784.0
800 295.0 334.0
801 565.0 709.0
802 603.0 769.0
803 445.0 281.0
804 654.0 405.0
805 35.0 263.0
806 536.0 526.0
807 91.0 184.0
808 347.0 241.0
809 161.0 574.0
810 248.0 15.0
EOF





